20
0,0 100,0
100,0 0,0
0,0 -100,0
-100,0 0,0
50,0 86,6025
-50,0 -86,6025
-50,0 86,6025
50,0 -86,6025
25,0 96,8245
-25,0 -96,8245
25,0 -96,8245
-25,0 96,8245
75,0 66,1437
-75,0 -66,1437
75,0 -66,1437
-75,0 66,1437
85,0 52,6782
-85,0 -52,6782
-85,0 52,6782
85,0 -52,6782